p cnf 90 381
1 2 3 0
4 5 6 0
7 8 9 0
10 11 12 0
13 14 15 0
16 17 18 0
19 20 21 0
22 23 24 0
25 26 27 0
28 29 30 0
31 32 33 0
34 35 36 0
37 38 39 0
40 41 42 0
43 44 45 0
46 47 48 0
49 50 51 0
52 53 54 0
55 56 57 0
58 59 60 0
61 62 63 0
64 65 66 0
67 68 69 0
70 71 72 0
73 74 75 0
76 77 78 0
79 80 81 0
82 83 84 0
85 86 87 0
88 89 90 0
-1 -2 0
-1 -3 0
-2 -3 0
-4 -5 0
-4 -6 0
-5 -6 0
-7 -8 0
-7 -9 0
-8 -9 0
-10 -11 0
-10 -12 0
-11 -12 0
-13 -14 0
-13 -15 0
-14 -15 0
-16 -17 0
-16 -18 0
-17 -18 0
-19 -20 0
-19 -21 0
-20 -21 0
-22 -23 0
-22 -24 0
-23 -24 0
-25 -26 0
-25 -27 0
-26 -27 0
-28 -29 0
-28 -30 0
-29 -30 0
-31 -32 0
-31 -33 0
-32 -33 0
-34 -35 0
-34 -36 0
-35 -36 0
-37 -38 0
-37 -39 0
-38 -39 0
-40 -41 0
-40 -42 0
-41 -42 0
-43 -44 0
-43 -45 0
-44 -45 0
-46 -47 0
-46 -48 0
-47 -48 0
-49 -50 0
-49 -51 0
-50 -51 0
-52 -53 0
-52 -54 0
-53 -54 0
-55 -56 0
-55 -57 0
-56 -57 0
-58 -59 0
-58 -60 0
-59 -60 0
-61 -62 0
-61 -63 0
-62 -63 0
-64 -65 0
-64 -66 0
-65 -66 0
-67 -68 0
-67 -69 0
-68 -69 0
-70 -71 0
-70 -72 0
-71 -72 0
-73 -74 0
-73 -75 0
-74 -75 0
-76 -77 0
-76 -78 0
-77 -78 0
-79 -80 0
-79 -81 0
-80 -81 0
-82 -83 0
-82 -84 0
-83 -84 0
-85 -86 0
-85 -87 0
-86 -87 0
-88 -89 0
-88 -90 0
-89 -90 0
-1 -25 0
-2 -26 0
-3 -27 0
-1 -40 0
-2 -41 0
-3 -42 0
-1 -49 0
-2 -50 0
-3 -51 0
-1 -64 0
-2 -65 0
-3 -66 0
-1 -73 0
-2 -74 0
-3 -75 0
-4 -16 0
-5 -17 0
-6 -18 0
-4 -22 0
-5 -23 0
-6 -24 0
-4 -25 0
-5 -26 0
-6 -27 0
-4 -64 0
-5 -65 0
-6 -66 0
-4 -67 0
-5 -68 0
-6 -69 0
-7 -19 0
-8 -20 0
-9 -21 0
-7 -25 0
-8 -26 0
-9 -27 0
-7 -37 0
-8 -38 0
-9 -39 0
-7 -52 0
-8 -53 0
-9 -54 0
-7 -55 0
-8 -56 0
-9 -57 0
-7 -64 0
-8 -65 0
-9 -66 0
-10 -16 0
-11 -17 0
-12 -18 0
-10 -25 0
-11 -26 0
-12 -27 0
-10 -43 0
-11 -44 0
-12 -45 0
-10 -61 0
-11 -62 0
-12 -63 0
-10 -64 0
-11 -65 0
-12 -66 0
-10 -70 0
-11 -71 0
-12 -72 0
-10 -73 0
-11 -74 0
-12 -75 0
-10 -79 0
-11 -80 0
-12 -81 0
-13 -19 0
-14 -20 0
-15 -21 0
-13 -31 0
-14 -32 0
-15 -33 0
-13 -37 0
-14 -38 0
-15 -39 0
-13 -79 0
-14 -80 0
-15 -81 0
-16 -52 0
-17 -53 0
-18 -54 0
-16 -76 0
-17 -77 0
-18 -78 0
-19 -25 0
-20 -26 0
-21 -27 0
-19 -52 0
-20 -53 0
-21 -54 0
-19 -64 0
-20 -65 0
-21 -66 0
-19 -73 0
-20 -74 0
-21 -75 0
-19 -82 0
-20 -83 0
-21 -84 0
-22 -25 0
-23 -26 0
-24 -27 0
-22 -43 0
-23 -44 0
-24 -45 0
-22 -49 0
-23 -50 0
-24 -51 0
-22 -70 0
-23 -71 0
-24 -72 0
-22 -73 0
-23 -74 0
-24 -75 0
-25 -55 0
-26 -56 0
-27 -57 0
-28 -64 0
-29 -65 0
-30 -66 0
-28 -85 0
-29 -86 0
-30 -87 0
-31 -34 0
-32 -35 0
-33 -36 0
-31 -43 0
-32 -44 0
-33 -45 0
-31 -46 0
-32 -47 0
-33 -48 0
-34 -64 0
-35 -65 0
-36 -66 0
-34 -67 0
-35 -68 0
-36 -69 0
-34 -79 0
-35 -80 0
-36 -81 0
-34 -82 0
-35 -83 0
-36 -84 0
-34 -85 0
-35 -86 0
-36 -87 0
-37 -43 0
-38 -44 0
-39 -45 0
-37 -55 0
-38 -56 0
-39 -57 0
-37 -73 0
-38 -74 0
-39 -75 0
-37 -85 0
-38 -86 0
-39 -87 0
-37 -88 0
-38 -89 0
-39 -90 0
-40 -43 0
-41 -44 0
-42 -45 0
-40 -55 0
-41 -56 0
-42 -57 0
-40 -58 0
-41 -59 0
-42 -60 0
-40 -79 0
-41 -80 0
-42 -81 0
-40 -88 0
-41 -89 0
-42 -90 0
-43 -46 0
-44 -47 0
-45 -48 0
-43 -73 0
-44 -74 0
-45 -75 0
-43 -79 0
-44 -80 0
-45 -81 0
-46 -52 0
-47 -53 0
-48 -54 0
-46 -70 0
-47 -71 0
-48 -72 0
-49 -55 0
-50 -56 0
-51 -57 0
-49 -64 0
-50 -65 0
-51 -66 0
-49 -76 0
-50 -77 0
-51 -78 0
-52 -73 0
-53 -74 0
-54 -75 0
-52 -79 0
-53 -80 0
-54 -81 0
-52 -85 0
-53 -86 0
-54 -87 0
-55 -79 0
-56 -80 0
-57 -81 0
-55 -82 0
-56 -83 0
-57 -84 0
-58 -67 0
-59 -68 0
-60 -69 0
-58 -76 0
-59 -77 0
-60 -78 0
-58 -79 0
-59 -80 0
-60 -81 0
-61 -85 0
-62 -86 0
-63 -87 0
-64 -67 0
-65 -68 0
-66 -69 0
-64 -73 0
-65 -74 0
-66 -75 0
-64 -82 0
-65 -83 0
-66 -84 0
-67 -79 0
-68 -80 0
-69 -81 0
-67 -88 0
-68 -89 0
-69 -90 0
-70 -88 0
-71 -89 0
-72 -90 0
-76 -85 0
-77 -86 0
-78 -87 0
-79 -85 0
-80 -86 0
-81 -87 0
-85 -88 0
-86 -89 0
-87 -90 0
